(set-logic QF_BV)
(declare-fun _substvar_477_ () (_ BitVec 16))
(declare-fun _substvar_483_ () (_ BitVec 16))
(declare-fun _substvar_472_ () (_ BitVec 16))
(declare-fun _substvar_503_ () (_ BitVec 16))
(declare-fun _substvar_476_ () (_ BitVec 16))
(declare-fun _substvar_497_ () (_ BitVec 16))
(declare-fun _substvar_502_ () (_ BitVec 16))
(declare-fun _substvar_459_ () (_ BitVec 16))
(declare-fun _substvar_488_ () (_ BitVec 16))
(declare-fun _substvar_471_ () (_ BitVec 16))
(declare-fun _substvar_467_ () (_ BitVec 16))
(declare-fun _substvar_482_ () (_ BitVec 16))
(declare-fun _substvar_498_ () (_ BitVec 16))
(assert (let ( (?v_24 ((_ zero_extend 16) _substvar_503_))) (let ((?v_22 (bvadd (_ bv0 32) (bvsub (bvadd (bvadd (_ bv0 32) ?v_24) ((_ zero_extend 16) _substvar_502_)) (_ bv0 32))))) (let ((?v_2 (bvadd ?v_22 (_ bv4 32))) (?v_30 ((_ zero_extend 16) _substvar_498_))) (let ((?v_28 (bvadd ?v_2 (bvsub (bvadd (bvadd (bvadd ?v_2 (_ bv70 32)) ?v_30) ((_ zero_extend 16) _substvar_497_)) ?v_2)))) (let ((?v_3 (bvadd ?v_28 (_ bv4 32)))) (let ((?v_34 (bvadd ?v_3 (_ bv0 32)))) (let ((?v_4 (bvadd ?v_34 (_ bv4 32)))) (let ((?v_40 (bvadd ?v_4 (_ bv0 32)))) (let ((?v_5 (bvadd ?v_40 (_ bv4 32)))) (let ((?v_45 (bvadd ?v_5 (bvsub (bvadd (bvadd (bvadd ?v_5 (_ bv64 32)) (_ bv0 32)) ((_ zero_extend 16) _substvar_488_)) ?v_5)))) (let ((?v_6 (bvadd ?v_45 (_ bv4 32))) (?v_50 ((_ zero_extend 16) _substvar_483_))) (let ((?v_52 (bvadd ?v_6 (bvsub (bvadd (bvadd (bvadd ?v_6 (_ bv59 32)) ?v_50) ((_ zero_extend 16) _substvar_482_)) ?v_6)))) (let ((?v_7 (bvadd ?v_52 (_ bv4 32))) (?v_51 ((_ zero_extend 16) _substvar_477_))) (let ((?v_54 (bvadd ?v_7 (bvsub (bvadd (bvadd (bvadd ?v_7 (_ bv60 32)) ?v_51) ((_ zero_extend 16) _substvar_476_)) ?v_7)))) (let ((?v_8 (bvadd ?v_54 (_ bv4 32))) (?v_53 ((_ zero_extend 16) _substvar_472_))) (let ((?v_56 (bvadd ?v_8 (bvsub (bvadd (bvadd (bvadd ?v_8 (_ bv62 32)) ?v_53) ((_ zero_extend 16) _substvar_471_)) ?v_8)))) (let ((?v_9 (bvadd ?v_56 (_ bv4 32)))) (let ((?v_58 (bvadd ?v_9 (bvsub (bvadd (bvadd (bvadd ?v_9 (_ bv59 32)) (_ bv0 32)) ((_ zero_extend 16) _substvar_467_)) ?v_9)))) (let ((?v_10 (bvadd ?v_58 (_ bv4 32)))) (let ((?v_60 (bvadd ?v_10 (_ bv0 32)))) (let ((?v_11 (bvadd ?v_60 (_ bv4 32)))) (let ((?v_61 (bvadd ?v_11 (bvsub (bvadd (bvadd (bvadd ?v_11 (_ bv58 32)) (_ bv0 32)) ((_ zero_extend 16) _substvar_459_)) ?v_11)))) (and true true true true true true true true true true true true true true true true true true true true true true true true true true (bvslt (bvadd ?v_61 (_ bv4 32)) (_ bv0 32)) true true true true true true true true true true true true true true true true true true true true true true true true true true true true true true true true true true true true true true true true true true true true true true true true true true true true true true true true true true true true true true true true true true true true true true true true true true true true true true true true true true true true true true true true true true true true true true true true true true true true true true true true true true true true true true true))))))))))))))))))))))))
(check-sat)
(exit)
